WARNING: for repeatability, setting FPU to use double precision
============================[ Problem Statistics ]=============================
|                                                                             |
|  Number of variables:            50                                         |
|  Number of clauses:             218                                         |
|  Parse time:                   0.00 s                                       |
|                                                                             |
============================[ Search Statistics ]==============================
| Conflicts |          ORIGINAL         |          LEARNT          | Progress |
|           |    Vars  Clauses Literals |    Limit  Clauses Lit/Cl |          |
===============================================================================
===============================================================================
restarts              : 1
conflicts             : 27             (17013 /sec)
decisions             : 44             (0.00 % random) (27725 /sec)
propagations          : 460            (289855 /sec)
conflict literals     : 120            (11.11 % deleted)
Memory used           : 20.00 MB
CPU time              : 0.001587 s

SATISFIABLE
